p cnf 72 262
2 3 -4 0
-2 -3 -4 0
2 -3 4 0
-2 3 4 0
6 3 0
6 5 0
-3 -5 -6 0
-7 -4 0
-7 6 0
4 -6 7 0
8 -1 0
8 7 0
1 -7 -8 0
9 10 -11 0
-9 -10 -11 0
9 -10 11 0
-9 10 11 0
5 1 -12 0
-5 -1 -12 0
5 -1 12 0
-5 1 12 0
13 -5 0
13 12 0
5 -12 -13 0
-13 2 -14 0
13 -2 -14 0
-13 -2 14 0
13 2 14 0
14 -15 0
-14 -15 0
16 -15 0
16 4 0
15 -4 -16 0
11 16 -17 0
-11 -16 -17 0
11 -16 17 0
-11 16 17 0
19 18 0
19 -9 0
-18 9 -19 0
-20 19 0
-20 18 0
-19 -18 20 0
-20 10 -21 0
20 -10 -21 0
-20 -10 21 0
20 10 21 0
6 -21 -22 0
-6 21 -22 0
6 21 22 0
-6 -21 22 0
-23 -17 0
-23 -22 0
17 22 23 0
-24 -3 0
-24 3 0
-25 4 0
-25 1 0
-4 -1 25 0
-26 -7 0
-26 -5 0
7 5 26 0
-27 -25 0
-27 -26 0
25 26 27 0
-28 24 0
-28 -27 0
-24 27 28 0
16 -29 -30 0
-16 29 -30 0
16 29 30 0
-16 -29 30 0
-31 -28 0
-31 -30 0
28 30 31 0
-32 5 0
-32 3 0
-5 -3 32 0
-33 1 0
-33 -6 0
-1 6 33 0
-34 33 0
-34 9 0
-33 -9 34 0
-35 -34 0
-35 -14 0
34 14 35 0
-36 -35 0
-36 -6 0
35 6 36 0
37 2 0
37 -36 0
-2 36 -37 0
15 -34 -38 0
-15 34 -38 0
15 34 38 0
-15 -34 38 0
40 -18 0
40 -12 0
18 12 -40 0
39 -40 -41 0
-39 40 -41 0
39 40 41 0
-39 -40 41 0
-9 -11 -42 0
9 11 -42 0
-9 11 42 0
9 -11 42 0
-43 6 0
-43 7 0
-6 -7 43 0
44 7 0
44 -43 0
-7 43 -44 0
-45 6 0
-45 12 0
-6 -12 45 0
-46 -44 0
-46 45 0
44 -45 46 0
47 -46 0
47 -20 0
46 20 -47 0
48 -42 0
48 -47 0
42 47 -48 0
49 3 0
49 2 0
-3 -2 -49 0
3 50 -51 0
-3 -50 -51 0
3 -50 51 0
-3 50 51 0
52 49 0
52 -51 0
-49 51 -52 0
53 -48 0
53 52 0
48 -52 -53 0
54 -41 0
54 53 0
41 -53 -54 0
38 54 -55 0
-38 -54 -55 0
38 -54 55 0
-38 54 55 0
56 -37 0
56 55 0
37 -55 -56 0
-57 -32 0
-57 56 0
32 -56 57 0
-58 31 0
-58 -57 0
-31 57 58 0
-59 -4 0
-59 -12 0
4 12 59 0
60 46 0
60 21 0
-46 -21 -60 0
61 59 0
61 -60 0
-59 60 -61 0
46 18 -62 0
-46 -18 -62 0
46 -18 62 0
-46 18 62 0
63 -49 0
63 -33 0
49 33 -63 0
64 -2 0
64 1 0
2 -1 -64 0
-65 -2 0
-65 -2 0
2 65 0
-64 65 -66 0
64 -65 -66 0
-64 -65 66 0
64 65 66 0
67 -63 0
67 66 0
63 -66 -67 0
-68 -62 0
-68 67 0
62 -67 68 0
61 -68 -69 0
-61 68 -69 0
61 68 69 0
-61 -68 69 0
70 -58 0
70 -69 0
58 69 -70 0
71 23 0
71 -70 0
-23 70 -71 0
8 -71 -72 0
-8 71 -72 0
8 71 72 0
-8 -71 72 0
8 43 32 26 20 0
-65 -8 63 -20 70 55 0
26 55 41 -3 -43 0
58 -6 0
-57 -41 0
16 -22 -66 -69 -7 23 0
43 -7 4 33 -56 36 0
-35 -9 -50 -8 -11 -27 0
18 67 43 -2 -49 -41 0
-59 -43 22 0
64 -70 1 -3 -20 -29 0
14 66 4 27 -50 0
-1 14 -3 9 43 0
11 35 42 5 60 54 0
70 35 0
-22 11 0
3 45 25 0
71 68 -13 -23 30 0
-59 40 0
-48 5 -55 0
72 58 -68 53 0
55 59 -72 0
58 -47 16 -6 -37 -21 0
-49 26 9 -7 -27 0
-26 56 -44 12 0
53 -5 -23 -4 -57 0
57 47 26 16 13 -72 0
27 -46 0
36 39 7 15 0
59 27 -29 62 0
-25 69 -39 20 -45 0
-61 4 -63 16 0
35 -37 21 19 0
-24 -43 71 0
-40 1 5 22 -13 -17 0
-55 -62 0
62 12 27 -22 59 50 0
-13 32 0
-62 5 0
45 -55 49 0
-37 -35 -31 -50 0
-10 -60 -14 -19 72 0
22 35 64 62 -56 0
-57 56 11 55 47 0
52 -72 12 14 -23 0
39 -52 21 0
72 67 0
17 -11 0
17 2 0
64 -36 0
19 41 -52 0
60 28 1 -67 27 33 0
-2 71 52 -72 0
40 28 69 -47 38 0
24 -15 -65 -28 -10 -30 0
-7 -31 0
72 -56 -60 57 -16 -21 0
56 45 -30 -7 0
24 -62 -59 0
12 54 -11 55 15 0
72 0
